#######################################
### Exact MIP solver for the HHCRSP ###
#######################################
-- Instance file: new-instances/HHCRSP_25_5_17_1.6_C_C.txt
-- Max threads: 4
-- Time limit: 999999 seconds
-- Use initial solution: No
Trivial flow violations prevented generating 789 variables.
Model exported.
Version identifier: 20.1.0.0 | 2020-11-10 | 9bedb6d68
CPXPARAM_Threads                                 4
CPXPARAM_TimeLimit                               999999
Tried aggregator 1 time.
LP Presolve eliminated 443 rows and 134 columns.
Reduced LP has 1421 rows, 1398 columns, and 9221 nonzeros.
Presolve time = 0.01 sec. (3.42 ticks)

Iteration log . . .
Iteration:     1   Dual objective     =             0.000000
Iteration:   128   Dual objective     =            48.668667

Solution status from MIP model:
-- Processing time: 0.008 sec.
-- Memory used: 15.0557 MB
-- Best bound: inf
-- Obj value: 48.6745
-- Gap: inf%
-- Total distance: 146.023
-- Total tardiness: 0
-- Largest tardiness: 0
